(set-info :smt-lib-version 2.6)
(set-logic UFNRA)
(set-info :source |
Generated by: Geoff Sutcliffe
Generated on: 2026-03-11
Generator: TPTPWorld
Application: Benchmarking automated theorem provers
Time limit: 120.0

These benchmarks are translations from the TPTP Library (Thousands of
Problems for Theorem Provers), see http://www.cs.miami.edu/~tptp/

The TPTP is maintained by Geoff Sutcliffe, and he contributed this
selection of benchmarks to SMT-LIB.  They were exported from the
v9.2.1 realease of TPTP.
|)
(set-info :category "industrial")
(set-info :status "unknown")
; SZS status Success
(declare-sort $$unsorted 0)
(declare-fun tptp.l4 () Real)
(declare-fun tptp.f5 (Real) Real)
(declare-fun tptp.l5 () Real)
(declare-fun tptp.f6 (Real) Real)
(declare-fun tptp.f0 (Real) Real)
(declare-fun tptp.l0 () Real)
(declare-fun tptp.f4 (Real) Real)
(declare-fun tptp.f2 (Real) Real)
(declare-fun tptp.l2 () Real)
(declare-fun tptp.a () Real)
(declare-fun tptp.f7 (Real) Real)
(declare-fun tptp.f1 (Real) Real)
(declare-fun tptp.l1 () Real)
(declare-fun tptp.l7 () Real)
(declare-fun tptp.l3 () Real)
(declare-fun tptp.f3 (Real) Real)
(declare-fun tptp.l6 () Real)
(assert (forall ((Epsilon Real)) (=> (< 0.0 Epsilon) (exists ((Delta Real)) (and (< 0.0 Delta) (forall ((X Real)) (let ((_let_1 (- (tptp.f0 X) tptp.l0))) (let ((_let_2 (>= _let_1 0.0))) (let ((_let_3 (- X tptp.a))) (let ((_let_4 (>= _let_3 0.0))) (=> (and (not (= X tptp.a)) (=> _let_4 (< _let_3 Delta)) (=> (not _let_4) (< (- _let_3) Delta))) (and (=> _let_2 (< _let_1 Epsilon)) (=> (not _let_2) (< (- _let_1) Epsilon))))))))))))))
(assert (forall ((Epsilon Real)) (=> (< 0.0 Epsilon) (exists ((Delta Real)) (and (< 0.0 Delta) (forall ((X Real)) (let ((_let_1 (- (tptp.f1 X) tptp.l1))) (let ((_let_2 (>= _let_1 0.0))) (let ((_let_3 (- X tptp.a))) (let ((_let_4 (>= _let_3 0.0))) (=> (and (not (= X tptp.a)) (=> _let_4 (< _let_3 Delta)) (=> (not _let_4) (< (- _let_3) Delta))) (and (=> _let_2 (< _let_1 Epsilon)) (=> (not _let_2) (< (- _let_1) Epsilon))))))))))))))
(assert (forall ((Epsilon Real)) (=> (< 0.0 Epsilon) (exists ((Delta Real)) (and (< 0.0 Delta) (forall ((X Real)) (let ((_let_1 (- (tptp.f2 X) tptp.l2))) (let ((_let_2 (>= _let_1 0.0))) (let ((_let_3 (- X tptp.a))) (let ((_let_4 (>= _let_3 0.0))) (=> (and (not (= X tptp.a)) (=> _let_4 (< _let_3 Delta)) (=> (not _let_4) (< (- _let_3) Delta))) (and (=> _let_2 (< _let_1 Epsilon)) (=> (not _let_2) (< (- _let_1) Epsilon))))))))))))))
(assert (forall ((Epsilon Real)) (=> (< 0.0 Epsilon) (exists ((Delta Real)) (and (< 0.0 Delta) (forall ((X Real)) (let ((_let_1 (- (tptp.f3 X) tptp.l3))) (let ((_let_2 (>= _let_1 0.0))) (let ((_let_3 (- X tptp.a))) (let ((_let_4 (>= _let_3 0.0))) (=> (and (not (= X tptp.a)) (=> _let_4 (< _let_3 Delta)) (=> (not _let_4) (< (- _let_3) Delta))) (and (=> _let_2 (< _let_1 Epsilon)) (=> (not _let_2) (< (- _let_1) Epsilon))))))))))))))
(assert (forall ((Epsilon Real)) (=> (< 0.0 Epsilon) (exists ((Delta Real)) (and (< 0.0 Delta) (forall ((X Real)) (let ((_let_1 (- (tptp.f4 X) tptp.l4))) (let ((_let_2 (>= _let_1 0.0))) (let ((_let_3 (- X tptp.a))) (let ((_let_4 (>= _let_3 0.0))) (=> (and (not (= X tptp.a)) (=> _let_4 (< _let_3 Delta)) (=> (not _let_4) (< (- _let_3) Delta))) (and (=> _let_2 (< _let_1 Epsilon)) (=> (not _let_2) (< (- _let_1) Epsilon))))))))))))))
(assert (forall ((Epsilon Real)) (=> (< 0.0 Epsilon) (exists ((Delta Real)) (and (< 0.0 Delta) (forall ((X Real)) (let ((_let_1 (- (tptp.f5 X) tptp.l5))) (let ((_let_2 (>= _let_1 0.0))) (let ((_let_3 (- X tptp.a))) (let ((_let_4 (>= _let_3 0.0))) (=> (and (not (= X tptp.a)) (=> _let_4 (< _let_3 Delta)) (=> (not _let_4) (< (- _let_3) Delta))) (and (=> _let_2 (< _let_1 Epsilon)) (=> (not _let_2) (< (- _let_1) Epsilon))))))))))))))
(assert (forall ((Epsilon Real)) (=> (< 0.0 Epsilon) (exists ((Delta Real)) (and (< 0.0 Delta) (forall ((X Real)) (let ((_let_1 (- (tptp.f6 X) tptp.l6))) (let ((_let_2 (>= _let_1 0.0))) (let ((_let_3 (- X tptp.a))) (let ((_let_4 (>= _let_3 0.0))) (=> (and (not (= X tptp.a)) (=> _let_4 (< _let_3 Delta)) (=> (not _let_4) (< (- _let_3) Delta))) (and (=> _let_2 (< _let_1 Epsilon)) (=> (not _let_2) (< (- _let_1) Epsilon))))))))))))))
(assert (forall ((Epsilon Real)) (=> (< 0.0 Epsilon) (exists ((Delta Real)) (and (< 0.0 Delta) (forall ((X Real)) (let ((_let_1 (- (tptp.f7 X) tptp.l7))) (let ((_let_2 (>= _let_1 0.0))) (let ((_let_3 (- X tptp.a))) (let ((_let_4 (>= _let_3 0.0))) (=> (and (not (= X tptp.a)) (=> _let_4 (< _let_3 Delta)) (=> (not _let_4) (< (- _let_3) Delta))) (and (=> _let_2 (< _let_1 Epsilon)) (=> (not _let_2) (< (- _let_1) Epsilon))))))))))))))
(assert (not (forall ((Epsilon Real)) (=> (< 0.0 Epsilon) (exists ((Delta Real)) (and (< 0.0 Delta) (forall ((X Real)) (let ((_let_1 (- (/ 71.0 13.0)))) (let ((_let_2 (- (/ 100.0 8.0)))) (let ((_let_3 (- (/ 41.0 99.0)))) (let ((_let_4 (/ 61.0 58.0))) (let ((_let_5 (- (/ 52.0 85.0)))) (let ((_let_6 (- (/ 97.0 25.0)))) (let ((_let_7 (/ 61.0 76.0))) (let ((_let_8 (- (/ 23.0 38.0)))) (let ((_let_9 (- (/ 32.0 28.0)))) (let ((_let_10 (/ 89.0 58.0))) (let ((_let_11 (- (/ 100.0 57.0)))) (let ((_let_12 (- (/ 14.0 6.0)))) (let ((_let_13 (- (/ 82.0 18.0)))) (let ((_let_14 (/ 76.0 75.0))) (let ((_let_15 (- (/ 79.0 46.0)))) (let ((_let_16 (/ 95.0 60.0))) (let ((_let_17 (- (/ 67.0 74.0)))) (let ((_let_18 (/ 33.0 30.0))) (let ((_let_19 (/ 43.0 26.0))) (let ((_let_20 (- (/ 83.0 100.0)))) (let ((_let_21 (- (/ 45.0 32.0)))) (let ((_let_22 (/ 83.0 23.0))) (let ((_let_23 (/ 67.0 99.0))) (let ((_let_24 (- (/ 12.0 84.0)))) (let ((_let_25 (- (/ 30.0 40.0)))) (let ((_let_26 (- (/ 19.0 27.0)))) (let ((_let_27 (- (/ 96.0 63.0)))) (let ((_let_28 (/ 61.0 5.0))) (let ((_let_29 (/ 14.0 81.0))) (let ((_let_30 (- (/ 20.0 53.0)))) (let ((_let_31 (/ 52.0 80.0))) (let ((_let_32 (tptp.f3 X))) (let ((_let_33 (tptp.f0 X))) (let ((_let_34 (tptp.f7 X))) (let ((_let_35 (tptp.f6 X))) (let ((_let_36 (tptp.f2 X))) (let ((_let_37 (tptp.f1 X))) (let ((_let_38 (tptp.f5 X))) (let ((_let_39 (- (+ (* _let_31 _let_35) (+ (* _let_30 _let_33) (+ (* _let_29 _let_36) (+ (* _let_28 _let_36) (+ (* _let_27 _let_33) (+ (* _let_26 _let_36) (+ (* _let_25 _let_35) (+ (* _let_24 _let_34) (+ (* _let_20 _let_37) (+ (* _let_23 _let_33) (+ (* _let_22 _let_38) (+ (* _let_21 _let_38) (+ (* _let_20 _let_38) (+ (* _let_19 _let_38) (+ (* _let_18 _let_35) (+ (* _let_17 _let_35) (+ (* _let_16 _let_35) (+ (* _let_15 _let_37) (+ (* _let_14 _let_32) (+ (* _let_13 _let_34) (+ (* _let_12 _let_33) (+ (* _let_11 _let_36) (+ (* _let_10 _let_33) (+ (* _let_9 _let_35) (+ (* _let_8 _let_32) (+ (* _let_7 _let_32) (+ (* _let_6 _let_34) (+ (* _let_5 _let_34) (+ (* _let_4 (tptp.f4 X)) (+ (* _let_3 _let_33) (+ (* _let_2 _let_32) (* _let_1 _let_32)))))))))))))))))))))))))))))))) (+ (* _let_31 tptp.l6) (+ (* _let_30 tptp.l0) (+ (* _let_29 tptp.l2) (+ (* _let_28 tptp.l2) (+ (* _let_27 tptp.l0) (+ (* _let_26 tptp.l2) (+ (* _let_25 tptp.l6) (+ (* _let_24 tptp.l7) (+ (* _let_20 tptp.l1) (+ (* _let_23 tptp.l0) (+ (* _let_22 tptp.l5) (+ (* _let_21 tptp.l5) (+ (* _let_20 tptp.l5) (+ (* _let_19 tptp.l5) (+ (* _let_18 tptp.l6) (+ (* _let_17 tptp.l6) (+ (* _let_16 tptp.l6) (+ (* _let_15 tptp.l1) (+ (* _let_14 tptp.l3) (+ (* _let_13 tptp.l7) (+ (* _let_12 tptp.l0) (+ (* _let_11 tptp.l2) (+ (* _let_10 tptp.l0) (+ (* _let_9 tptp.l6) (+ (* _let_8 tptp.l3) (+ (* _let_7 tptp.l3) (+ (* _let_6 tptp.l7) (+ (* _let_5 tptp.l7) (+ (* _let_4 tptp.l4) (+ (* _let_3 tptp.l0) (+ (* _let_2 tptp.l3) (* _let_1 tptp.l3))))))))))))))))))))))))))))))))))) (let ((_let_40 (>= _let_39 0.0))) (let ((_let_41 (- X tptp.a))) (let ((_let_42 (>= _let_41 0.0))) (=> (and (not (= X tptp.a)) (=> _let_42 (< _let_41 Delta)) (=> (not _let_42) (< (- _let_41) Delta))) (and (=> _let_40 (< _let_39 Epsilon)) (=> (not _let_40) (< (- _let_39) Epsilon)))))))))))))))))))))))))))))))))))))))))))))))))))))
(check-sat)
